p edge 50 118
e 0 11
e 0 14
e 0 32
e 0 38
e 1 6
e 1 7
e 2 28
e 2 30
e 2 49
e 3 23
e 3 26
e 3 34
e 3 37
e 3 40
e 3 41
e 3 48
e 4 22
e 4 35
e 4 37
e 4 42
e 4 46
e 4 49
e 5 8
e 5 11
e 5 16
e 5 19
e 5 20
e 5 27
e 5 30
e 5 37
e 5 47
e 6 18
e 6 19
e 6 31
e 6 41
e 6 47
e 7 11
e 7 13
e 7 40
e 7 45
e 8 27
e 8 29
e 8 33
e 9 23
e 9 40
e 10 18
e 10 38
e 10 42
e 10 46
e 11 40
e 12 21
e 12 37
e 12 39
e 12 47
e 13 16
e 13 32
e 13 33
e 13 44
e 13 47
e 14 40
e 14 44
e 15 29
e 15 31
e 16 23
e 16 32
e 16 46
e 17 42
e 17 43
e 17 48
e 18 20
e 18 43
e 19 24
e 19 28
e 19 29
e 19 36
e 19 49
e 20 28
e 20 37
e 20 42
e 20 43
e 21 32
e 22 26
e 22 31
e 23 27
e 23 39
e 23 49
e 24 45
e 24 47
e 25 29
e 25 34
e 25 49
e 26 36
e 26 43
e 27 37
e 27 41
e 28 32
e 29 39
e 30 33
e 31 35
e 31 41
e 32 33
e 32 36
e 32 46
e 33 35
e 33 43
e 33 49
e 34 37
e 35 45
e 36 38
e 36 40
e 37 40
e 37 48
e 38 41
e 39 44
e 40 47
e 43 44
e 44 47
e 46 48
